\ SCIP STATISTICS
\   Problem name     : t_neos5
\   Variables        : 63 (53 binary, 0 integer, 0 implicit integer, 10 continuous)
\   Constraints      : 64
Minimize
 Obj: +1 t_d52 +1 t_d1 +1 t_d2 +1 t_d3 +1 t_d4 +1 t_d5 +1 t_d6 +1 t_d7 +1 t_d8 +1 t_d9 +1 t_d10 +1 t_d11
      +1 t_d12 +1 t_d13 +1 t_d14 +1 t_d15 +1 t_d16 +1 t_d17 +1 t_d18 +1 t_d19 +1 t_d20 +1 t_d21 +1 t_d22
      +1 t_d23 +1 t_d24 +1 t_d25 +1 t_d26 +1 t_d27 +1 t_d28 +1 t_d29 +1 t_d30 +1 t_d31 +1 t_d32 +1 t_d33
      +1 t_d34 +1 t_d35 +1 t_d36 +1 t_d37 +1 t_d38 +1 t_d39 +1 t_d40 +1 t_d41 +1 t_d42 +1 t_d43 +1 t_d44
      +1 t_d45 +1 t_d46 +1 t_d47 +1 t_d48 +1 t_d49 +1 t_d50 +1 t_d51 +1 t_d53 +1 t_d54 +1 t_d55 +1 t_d56
      +1 t_d57 +1 t_d58 +1 t_d59 +1 t_d60 +1 t_d61 +1 t_d62 +1 t_d63
Subject to
 R1: +1 t_d1 +1 t_d2 +1 t_d3 +1 t_d4 +1 t_d5 +1 t_d6 +1 t_d7 +1 t_d8 +1 t_d9 +1 t_d10 +1 t_d11 +1 t_d12
  +1 t_d13 +1 t_d14 +1 t_d15 +1 t_d16 +1 t_d17 +1 t_d18 +1 t_d19 +1 t_d20 +1 t_d21 +1 t_d22 +1 t_d23 +1 t_d24
  +1 t_d25 +1 t_d26 +1 t_d27 +1 t_d28 +1 t_d29 +1 t_d30 +1 t_d31 +1 t_d32 >= +8
 R56: +1 t_d2 +1 t_d3 +1 t_d5 +1 t_d8 +1 t_d9 +1 t_d12 +1 t_d14 +1 t_d15 +1 t_d18 +1 t_d19 +1 t_d21 +1 t_d24
  +1 t_d25 +1 t_d28 +1 t_d30 +1 t_d31 +1 t_d34 +1 t_d35 +1 t_d37 +1 t_d40 +1 t_d41 +1 t_d44 +1 t_d46 +1 t_d47
  +1 t_d50 +1 t_d51 +1 t_d53 +1 t_d56 +1 t_d57 +1 t_d60 +1 t_d62 +1 t_d63 >= +5
 R3: +1 t_d52 +1 t_d1 +1 t_d2 +1 t_d3 +1 t_d4 +1 t_d5 +1 t_d6 +1 t_d7 +1 t_d8 +1 t_d17 +1 t_d18 +1 t_d19
  +1 t_d20 +1 t_d21 +1 t_d22 +1 t_d23 +1 t_d24 +1 t_d33 +1 t_d34 +1 t_d35 +1 t_d36 +1 t_d37 +1 t_d38 +1 t_d39
  +1 t_d40 +1 t_d49 +1 t_d50 +1 t_d51 +1 t_d53 +1 t_d54 +1 t_d55 +1 t_d56 >= +8
 R38: +1 t_d1 +1 t_d4 +1 t_d5 +1 t_d8 +1 t_d9 +1 t_d12 +1 t_d13 +1 t_d16 +1 t_d17 +1 t_d20 +1 t_d21 +1 t_d24
  +1 t_d25 +1 t_d28 +1 t_d29 +1 t_d32 +1 t_d34 +1 t_d35 +1 t_d38 +1 t_d39 +1 t_d42 +1 t_d43 +1 t_d46 +1 t_d47
  +1 t_d50 +1 t_d51 +1 t_d54 +1 t_d55 +1 t_d58 +1 t_d59 +1 t_d62 +1 t_d63 >= +6
 R30: +1 t_d52 +1 t_d1 +1 t_d2 +1 t_d7 +1 t_d8 +1 t_d9 +1 t_d10 +1 t_d15 +1 t_d16 +1 t_d19 +1 t_d20 +1 t_d21
  +1 t_d22 +1 t_d27 +1 t_d28 +1 t_d29 +1 t_d30 +1 t_d33 +1 t_d34 +1 t_d39 +1 t_d40 +1 t_d41 +1 t_d42 +1 t_d47
  +1 t_d48 +1 t_d51 +1 t_d53 +1 t_d54 +1 t_d59 +1 t_d60 +1 t_d61 +1 t_d62 >= +6
 R22: +1 t_d52 +1 t_d1 +1 t_d2 +1 t_d3 +1 t_d4 +1 t_d5 +1 t_d6 +1 t_d7 +1 t_d8 +1 t_d25 +1 t_d26 +1 t_d27
  +1 t_d28 +1 t_d29 +1 t_d30 +1 t_d31 +1 t_d32 +1 t_d41 +1 t_d42 +1 t_d43 +1 t_d44 +1 t_d45 +1 t_d46 +1 t_d47
  +1 t_d48 +1 t_d49 +1 t_d50 +1 t_d51 +1 t_d53 +1 t_d54 +1 t_d55 +1 t_d56 >= +6
 R41: +1 t_d52 +1 t_d1 +1 t_d4 +1 t_d6 +1 t_d7 +1 t_d9 +1 t_d12 +1 t_d14 +1 t_d15 +1 t_d17 +1 t_d20 +1 t_d22
  +1 t_d23 +1 t_d25 +1 t_d28 +1 t_d30 +1 t_d31 +1 t_d33 +1 t_d36 +1 t_d38 +1 t_d39 +1 t_d41 +1 t_d44 +1 t_d46
  +1 t_d47 +1 t_d49 +1 t_d54 +1 t_d55 +1 t_d57 +1 t_d60 +1 t_d62 +1 t_d63 >= +6
 R13: +1 t_d3 +1 t_d4 +1 t_d7 +1 t_d8 +1 t_d11 +1 t_d12 +1 t_d15 +1 t_d16 +1 t_d19 +1 t_d20 +1 t_d23 +1 t_d24
  +1 t_d27 +1 t_d28 +1 t_d31 +1 t_d32 +1 t_d33 +1 t_d34 +1 t_d37 +1 t_d38 +1 t_d41 +1 t_d42 +1 t_d45 +1 t_d46
  +1 t_d49 +1 t_d50 +1 t_d53 +1 t_d54 +1 t_d57 +1 t_d58 +1 t_d61 +1 t_d62 >= +7
 R6: +1 t_d1 +1 t_d3 +1 t_d5 +1 t_d7 +1 t_d9 +1 t_d11 +1 t_d13 +1 t_d15 +1 t_d17 +1 t_d19 +1 t_d21 +1 t_d23
  +1 t_d25 +1 t_d27 +1 t_d29 +1 t_d31 +1 t_d33 +1 t_d35 +1 t_d37 +1 t_d39 +1 t_d41 +1 t_d43 +1 t_d45 +1 t_d47
  +1 t_d49 +1 t_d51 +1 t_d53 +1 t_d55 +1 t_d57 +1 t_d59 +1 t_d61 +1 t_d63 >= +8
 R10: +1 t_d52 +1 t_d5 +1 t_d6 +1 t_d7 +1 t_d8 +1 t_d13 +1 t_d14 +1 t_d15 +1 t_d16 +1 t_d21 +1 t_d22 +1 t_d23
  +1 t_d24 +1 t_d29 +1 t_d30 +1 t_d31 +1 t_d32 +1 t_d33 +1 t_d34 +1 t_d35 +1 t_d36 +1 t_d41 +1 t_d42 +1 t_d43
  +1 t_d44 +1 t_d49 +1 t_d50 +1 t_d51 +1 t_d57 +1 t_d58 +1 t_d59 +1 t_d60 >= +7
 R11: +1 t_d52 +1 t_d5 +1 t_d6 +1 t_d7 +1 t_d8 +1 t_d13 +1 t_d14 +1 t_d15 +1 t_d16 +1 t_d17 +1 t_d18 +1 t_d19
  +1 t_d20 +1 t_d25 +1 t_d26 +1 t_d27 +1 t_d28 +1 t_d37 +1 t_d38 +1 t_d39 +1 t_d40 +1 t_d45 +1 t_d46 +1 t_d47
  +1 t_d48 +1 t_d49 +1 t_d50 +1 t_d51 +1 t_d57 +1 t_d58 +1 t_d59 +1 t_d60 >= +7
 R28: +1 t_d52 +1 t_d1 +1 t_d2 +1 t_d5 +1 t_d6 +1 t_d11 +1 t_d12 +1 t_d15 +1 t_d16 +1 t_d19 +1 t_d20 +1 t_d23
  +1 t_d24 +1 t_d25 +1 t_d26 +1 t_d29 +1 t_d30 +1 t_d33 +1 t_d34 +1 t_d37 +1 t_d38 +1 t_d43 +1 t_d44 +1 t_d47
  +1 t_d48 +1 t_d51 +1 t_d55 +1 t_d56 +1 t_d57 +1 t_d58 +1 t_d61 +1 t_d62 >= +6
 R42: +1 t_d5 +1 t_d6 +1 t_d7 +1 t_d8 +1 t_d9 +1 t_d10 +1 t_d11 +1 t_d12 +1 t_d17 +1 t_d18 +1 t_d19 +1 t_d20
  +1 t_d29 +1 t_d30 +1 t_d31 +1 t_d32 +1 t_d33 +1 t_d34 +1 t_d35 +1 t_d36 +1 t_d45 +1 t_d46 +1 t_d47 +1 t_d48
  +1 t_d53 +1 t_d54 +1 t_d55 +1 t_d56 +1 t_d57 +1 t_d58 +1 t_d59 +1 t_d60 >= +5
 R26: +1 t_d1 +1 t_d2 +1 t_d5 +1 t_d6 +1 t_d9 +1 t_d10 +1 t_d13 +1 t_d14 +1 t_d19 +1 t_d20 +1 t_d23 +1 t_d24
  +1 t_d27 +1 t_d28 +1 t_d31 +1 t_d32 +1 t_d35 +1 t_d36 +1 t_d39 +1 t_d40 +1 t_d43 +1 t_d44 +1 t_d47 +1 t_d48
  +1 t_d49 +1 t_d50 +1 t_d53 +1 t_d54 +1 t_d57 +1 t_d58 +1 t_d61 +1 t_d62 >= +6
 R36: +1 t_d52 +1 t_d1 +1 t_d3 +1 t_d6 +1 t_d8 +1 t_d9 +1 t_d11 +1 t_d14 +1 t_d16 +1 t_d18 +1 t_d20 +1 t_d21
  +1 t_d23 +1 t_d26 +1 t_d28 +1 t_d29 +1 t_d31 +1 t_d33 +1 t_d35 +1 t_d38 +1 t_d40 +1 t_d41 +1 t_d43 +1 t_d46
  +1 t_d48 +1 t_d50 +1 t_d53 +1 t_d55 +1 t_d58 +1 t_d60 +1 t_d61 +1 t_d63 >= +6
 R46: +1 t_d3 +1 t_d4 +1 t_d5 +1 t_d6 +1 t_d9 +1 t_d10 +1 t_d15 +1 t_d16 +1 t_d17 +1 t_d18 +1 t_d23 +1 t_d24
  +1 t_d27 +1 t_d28 +1 t_d29 +1 t_d30 +1 t_d35 +1 t_d36 +1 t_d37 +1 t_d38 +1 t_d41 +1 t_d42 +1 t_d47 +1 t_d48
  +1 t_d49 +1 t_d50 +1 t_d55 +1 t_d56 +1 t_d59 +1 t_d60 +1 t_d61 +1 t_d62 >= +5
 R18: +1 t_d2 +1 t_d4 +1 t_d6 +1 t_d8 +1 t_d10 +1 t_d12 +1 t_d14 +1 t_d16 +1 t_d17 +1 t_d19 +1 t_d21 +1 t_d23
  +1 t_d25 +1 t_d27 +1 t_d29 +1 t_d31 +1 t_d34 +1 t_d36 +1 t_d38 +1 t_d40 +1 t_d42 +1 t_d44 +1 t_d46 +1 t_d48
  +1 t_d49 +1 t_d51 +1 t_d53 +1 t_d55 +1 t_d57 +1 t_d59 +1 t_d61 +1 t_d63 >= +7
 R51: +1 t_d2 +1 t_d3 +1 t_d6 +1 t_d7 +1 t_d10 +1 t_d11 +1 t_d14 +1 t_d15 +1 t_d17 +1 t_d20 +1 t_d21 +1 t_d24
  +1 t_d25 +1 t_d28 +1 t_d29 +1 t_d32 +1 t_d33 +1 t_d36 +1 t_d37 +1 t_d40 +1 t_d41 +1 t_d44 +1 t_d45 +1 t_d48
  +1 t_d50 +1 t_d51 +1 t_d54 +1 t_d55 +1 t_d58 +1 t_d59 +1 t_d62 +1 t_d63 >= +5
 R33: +1 t_d52 +1 t_d1 +1 t_d3 +1 t_d5 +1 t_d7 +1 t_d10 +1 t_d12 +1 t_d14 +1 t_d16 +1 t_d17 +1 t_d19 +1 t_d21
  +1 t_d23 +1 t_d26 +1 t_d28 +1 t_d30 +1 t_d32 +1 t_d34 +1 t_d36 +1 t_d38 +1 t_d40 +1 t_d41 +1 t_d43 +1 t_d45
  +1 t_d47 +1 t_d50 +1 t_d54 +1 t_d56 +1 t_d57 +1 t_d59 +1 t_d61 +1 t_d63 >= +6
 R23: +1 t_d52 +1 t_d1 +1 t_d2 +1 t_d3 +1 t_d4 +1 t_d9 +1 t_d10 +1 t_d11 +1 t_d12 +1 t_d21 +1 t_d22 +1 t_d23
  +1 t_d24 +1 t_d29 +1 t_d30 +1 t_d31 +1 t_d32 +1 t_d37 +1 t_d38 +1 t_d39 +1 t_d40 +1 t_d45 +1 t_d46 +1 t_d47
  +1 t_d48 +1 t_d49 +1 t_d50 +1 t_d51 +1 t_d57 +1 t_d58 +1 t_d59 +1 t_d60 >= +6
 R15: +1 t_d52 +1 t_d3 +1 t_d4 +1 t_d7 +1 t_d8 +1 t_d9 +1 t_d10 +1 t_d13 +1 t_d14 +1 t_d19 +1 t_d20 +1 t_d23
  +1 t_d24 +1 t_d25 +1 t_d26 +1 t_d29 +1 t_d30 +1 t_d35 +1 t_d36 +1 t_d39 +1 t_d40 +1 t_d41 +1 t_d42 +1 t_d45
  +1 t_d46 +1 t_d51 +1 t_d55 +1 t_d56 +1 t_d57 +1 t_d58 +1 t_d61 +1 t_d62 >= +7
 R4: +1 t_d52 +1 t_d1 +1 t_d2 +1 t_d3 +1 t_d4 +1 t_d9 +1 t_d10 +1 t_d11 +1 t_d12 +1 t_d17 +1 t_d18 +1 t_d19
  +1 t_d20 +1 t_d25 +1 t_d26 +1 t_d27 +1 t_d28 +1 t_d33 +1 t_d34 +1 t_d35 +1 t_d36 +1 t_d41 +1 t_d42 +1 t_d43
  +1 t_d44 +1 t_d49 +1 t_d50 +1 t_d51 +1 t_d57 +1 t_d58 +1 t_d59 +1 t_d60 >= +8
 R43: +1 t_d52 +1 t_d3 +1 t_d4 +1 t_d7 +1 t_d8 +1 t_d9 +1 t_d10 +1 t_d13 +1 t_d14 +1 t_d17 +1 t_d18 +1 t_d21
  +1 t_d22 +1 t_d27 +1 t_d28 +1 t_d31 +1 t_d32 +1 t_d33 +1 t_d34 +1 t_d37 +1 t_d38 +1 t_d43 +1 t_d44 +1 t_d47
  +1 t_d48 +1 t_d51 +1 t_d55 +1 t_d56 +1 t_d57 +1 t_d58 +1 t_d61 +1 t_d62 >= +5
 R2: +1 t_d1 +1 t_d2 +1 t_d3 +1 t_d4 +1 t_d5 +1 t_d6 +1 t_d7 +1 t_d8 +1 t_d9 +1 t_d10 +1 t_d11 +1 t_d12
  +1 t_d13 +1 t_d14 +1 t_d15 +1 t_d16 +1 t_d33 +1 t_d34 +1 t_d35 +1 t_d36 +1 t_d37 +1 t_d38 +1 t_d39 +1 t_d40
  +1 t_d41 +1 t_d42 +1 t_d43 +1 t_d44 +1 t_d45 +1 t_d46 +1 t_d47 +1 t_d48 >= +8
 R48: +1 t_d52 +1 t_d2 +1 t_d4 +1 t_d5 +1 t_d7 +1 t_d10 +1 t_d12 +1 t_d13 +1 t_d15 +1 t_d17 +1 t_d19 +1 t_d22
  +1 t_d24 +1 t_d25 +1 t_d27 +1 t_d30 +1 t_d32 +1 t_d33 +1 t_d35 +1 t_d38 +1 t_d40 +1 t_d41 +1 t_d43 +1 t_d46
  +1 t_d48 +1 t_d50 +1 t_d53 +1 t_d55 +1 t_d58 +1 t_d60 +1 t_d61 +1 t_d63 >= +5
 R25: +1 t_d1 +1 t_d2 +1 t_d3 +1 t_d4 +1 t_d13 +1 t_d14 +1 t_d15 +1 t_d16 +1 t_d21 +1 t_d22 +1 t_d23 +1 t_d24
  +1 t_d25 +1 t_d26 +1 t_d27 +1 t_d28 +1 t_d33 +1 t_d34 +1 t_d35 +1 t_d36 +1 t_d45 +1 t_d46 +1 t_d47 +1 t_d48
  +1 t_d53 +1 t_d54 +1 t_d55 +1 t_d56 +1 t_d57 +1 t_d58 +1 t_d59 +1 t_d60 >= +6
 R24: +1 t_d1 +1 t_d2 +1 t_d3 +1 t_d4 +1 t_d13 +1 t_d14 +1 t_d15 +1 t_d16 +1 t_d17 +1 t_d18 +1 t_d19 +1 t_d20
  +1 t_d29 +1 t_d30 +1 t_d31 +1 t_d32 +1 t_d37 +1 t_d38 +1 t_d39 +1 t_d40 +1 t_d41 +1 t_d42 +1 t_d43 +1 t_d44
  +1 t_d53 +1 t_d54 +1 t_d55 +1 t_d56 +1 t_d57 +1 t_d58 +1 t_d59 +1 t_d60 >= +6
 R16: +1 t_d52 +1 t_d3 +1 t_d4 +1 t_d5 +1 t_d6 +1 t_d11 +1 t_d12 +1 t_d13 +1 t_d14 +1 t_d19 +1 t_d20 +1 t_d21
  +1 t_d22 +1 t_d27 +1 t_d28 +1 t_d29 +1 t_d30 +1 t_d35 +1 t_d36 +1 t_d37 +1 t_d38 +1 t_d43 +1 t_d44 +1 t_d45
  +1 t_d46 +1 t_d51 +1 t_d53 +1 t_d54 +1 t_d59 +1 t_d60 +1 t_d61 +1 t_d62 >= +7
 R9: +1 t_d52 +1 t_d9 +1 t_d10 +1 t_d11 +1 t_d12 +1 t_d13 +1 t_d14 +1 t_d15 +1 t_d16 +1 t_d17 +1 t_d18
  +1 t_d19 +1 t_d20 +1 t_d21 +1 t_d22 +1 t_d23 +1 t_d24 +1 t_d41 +1 t_d42 +1 t_d43 +1 t_d44 +1 t_d45 +1 t_d46
  +1 t_d47 +1 t_d48 +1 t_d49 +1 t_d50 +1 t_d51 +1 t_d53 +1 t_d54 +1 t_d55 +1 t_d56 >= +7
 R8: +1 t_d52 +1 t_d9 +1 t_d10 +1 t_d11 +1 t_d12 +1 t_d13 +1 t_d14 +1 t_d15 +1 t_d16 +1 t_d25 +1 t_d26
  +1 t_d27 +1 t_d28 +1 t_d29 +1 t_d30 +1 t_d31 +1 t_d32 +1 t_d33 +1 t_d34 +1 t_d35 +1 t_d36 +1 t_d37 +1 t_d38
  +1 t_d39 +1 t_d40 +1 t_d49 +1 t_d50 +1 t_d51 +1 t_d53 +1 t_d54 +1 t_d55 +1 t_d56 >= +7
 R55: +1 t_d52 +1 t_d2 +1 t_d3 +1 t_d5 +1 t_d8 +1 t_d10 +1 t_d11 +1 t_d13 +1 t_d16 +1 t_d17 +1 t_d20 +1 t_d22
  +1 t_d23 +1 t_d25 +1 t_d28 +1 t_d30 +1 t_d31 +1 t_d34 +1 t_d35 +1 t_d37 +1 t_d40 +1 t_d42 +1 t_d43 +1 t_d45
  +1 t_d48 +1 t_d49 +1 t_d54 +1 t_d55 +1 t_d57 +1 t_d60 +1 t_d62 +1 t_d63 >= +5
 R47: +1 t_d52 +1 t_d2 +1 t_d4 +1 t_d6 +1 t_d8 +1 t_d9 +1 t_d11 +1 t_d13 +1 t_d15 +1 t_d17 +1 t_d19 +1 t_d21
  +1 t_d23 +1 t_d26 +1 t_d28 +1 t_d30 +1 t_d32 +1 t_d33 +1 t_d35 +1 t_d37 +1 t_d39 +1 t_d42 +1 t_d44 +1 t_d46
  +1 t_d48 +1 t_d50 +1 t_d54 +1 t_d56 +1 t_d57 +1 t_d59 +1 t_d61 +1 t_d63 >= +5
 R40: +1 t_d52 +1 t_d1 +1 t_d4 +1 t_d5 +1 t_d8 +1 t_d10 +1 t_d11 +1 t_d14 +1 t_d15 +1 t_d17 +1 t_d20 +1 t_d21
  +1 t_d24 +1 t_d26 +1 t_d27 +1 t_d30 +1 t_d31 +1 t_d33 +1 t_d36 +1 t_d37 +1 t_d40 +1 t_d42 +1 t_d43 +1 t_d46
  +1 t_d47 +1 t_d49 +1 t_d53 +1 t_d56 +1 t_d58 +1 t_d59 +1 t_d62 +1 t_d63 >= +6
 R39: +1 t_d1 +1 t_d4 +1 t_d5 +1 t_d8 +1 t_d9 +1 t_d12 +1 t_d13 +1 t_d16 +1 t_d18 +1 t_d19 +1 t_d22 +1 t_d23
  +1 t_d26 +1 t_d27 +1 t_d30 +1 t_d31 +1 t_d33 +1 t_d36 +1 t_d37 +1 t_d40 +1 t_d41 +1 t_d44 +1 t_d45 +1 t_d48
  +1 t_d50 +1 t_d51 +1 t_d54 +1 t_d55 +1 t_d58 +1 t_d59 +1 t_d62 +1 t_d63 >= +6
 R37: +1 t_d1 +1 t_d3 +1 t_d6 +1 t_d8 +1 t_d10 +1 t_d12 +1 t_d13 +1 t_d15 +1 t_d17 +1 t_d19 +1 t_d22 +1 t_d24
  +1 t_d26 +1 t_d28 +1 t_d29 +1 t_d31 +1 t_d33 +1 t_d35 +1 t_d38 +1 t_d40 +1 t_d42 +1 t_d44 +1 t_d45 +1 t_d47
  +1 t_d49 +1 t_d51 +1 t_d54 +1 t_d56 +1 t_d58 +1 t_d60 +1 t_d61 +1 t_d63 >= +6
 R29: +1 t_d52 +1 t_d1 +1 t_d2 +1 t_d7 +1 t_d8 +1 t_d9 +1 t_d10 +1 t_d15 +1 t_d16 +1 t_d17 +1 t_d18 +1 t_d23
  +1 t_d24 +1 t_d25 +1 t_d26 +1 t_d31 +1 t_d32 +1 t_d35 +1 t_d36 +1 t_d37 +1 t_d38 +1 t_d43 +1 t_d44 +1 t_d45
  +1 t_d46 +1 t_d51 +1 t_d53 +1 t_d54 +1 t_d59 +1 t_d60 +1 t_d61 +1 t_d62 >= +6
 R17: +1 t_d2 +1 t_d4 +1 t_d6 +1 t_d8 +1 t_d10 +1 t_d12 +1 t_d14 +1 t_d16 +1 t_d18 +1 t_d20 +1 t_d22 +1 t_d24
  +1 t_d26 +1 t_d28 +1 t_d30 +1 t_d32 +1 t_d33 +1 t_d35 +1 t_d37 +1 t_d39 +1 t_d41 +1 t_d43 +1 t_d45 +1 t_d47
  +1 t_d49 +1 t_d51 +1 t_d53 +1 t_d55 +1 t_d57 +1 t_d59 +1 t_d61 +1 t_d63 >= +7
 R12: +1 t_d5 +1 t_d6 +1 t_d7 +1 t_d8 +1 t_d9 +1 t_d10 +1 t_d11 +1 t_d12 +1 t_d21 +1 t_d22 +1 t_d23 +1 t_d24
  +1 t_d25 +1 t_d26 +1 t_d27 +1 t_d28 +1 t_d37 +1 t_d38 +1 t_d39 +1 t_d40 +1 t_d41 +1 t_d42 +1 t_d43 +1 t_d44
  +1 t_d53 +1 t_d54 +1 t_d55 +1 t_d56 +1 t_d57 +1 t_d58 +1 t_d59 +1 t_d60 >= +7
 R44: +1 t_d52 +1 t_d3 +1 t_d4 +1 t_d5 +1 t_d6 +1 t_d11 +1 t_d12 +1 t_d13 +1 t_d14 +1 t_d17 +1 t_d18 +1 t_d23
  +1 t_d24 +1 t_d25 +1 t_d26 +1 t_d31 +1 t_d32 +1 t_d33 +1 t_d34 +1 t_d39 +1 t_d40 +1 t_d41 +1 t_d42 +1 t_d47
  +1 t_d48 +1 t_d51 +1 t_d53 +1 t_d54 +1 t_d59 +1 t_d60 +1 t_d61 +1 t_d62 >= +5
 R45: +1 t_d3 +1 t_d4 +1 t_d5 +1 t_d6 +1 t_d9 +1 t_d10 +1 t_d15 +1 t_d16 +1 t_d19 +1 t_d20 +1 t_d21 +1 t_d22
  +1 t_d25 +1 t_d26 +1 t_d31 +1 t_d32 +1 t_d33 +1 t_d34 +1 t_d39 +1 t_d40 +1 t_d43 +1 t_d44 +1 t_d45 +1 t_d46
  +1 t_d49 +1 t_d50 +1 t_d55 +1 t_d56 +1 t_d59 +1 t_d60 +1 t_d61 +1 t_d62 >= +5
 R35: +1 t_d52 +1 t_d1 +1 t_d3 +1 t_d6 +1 t_d8 +1 t_d9 +1 t_d11 +1 t_d14 +1 t_d16 +1 t_d17 +1 t_d19 +1 t_d22
  +1 t_d24 +1 t_d25 +1 t_d27 +1 t_d30 +1 t_d32 +1 t_d34 +1 t_d36 +1 t_d37 +1 t_d39 +1 t_d42 +1 t_d44 +1 t_d45
  +1 t_d47 +1 t_d50 +1 t_d53 +1 t_d55 +1 t_d58 +1 t_d60 +1 t_d61 +1 t_d63 >= +6
 R32: +1 t_d1 +1 t_d3 +1 t_d5 +1 t_d7 +1 t_d9 +1 t_d11 +1 t_d13 +1 t_d15 +1 t_d18 +1 t_d20 +1 t_d22 +1 t_d24
  +1 t_d26 +1 t_d28 +1 t_d30 +1 t_d32 +1 t_d34 +1 t_d36 +1 t_d38 +1 t_d40 +1 t_d42 +1 t_d44 +1 t_d46 +1 t_d48
  +1 t_d49 +1 t_d51 +1 t_d53 +1 t_d55 +1 t_d57 +1 t_d59 +1 t_d61 +1 t_d63 >= +6
 R21: +1 t_d2 +1 t_d3 +1 t_d6 +1 t_d7 +1 t_d10 +1 t_d11 +1 t_d14 +1 t_d15 +1 t_d18 +1 t_d19 +1 t_d22 +1 t_d23
  +1 t_d26 +1 t_d27 +1 t_d30 +1 t_d31 +1 t_d34 +1 t_d35 +1 t_d38 +1 t_d39 +1 t_d42 +1 t_d43 +1 t_d46 +1 t_d47
  +1 t_d50 +1 t_d51 +1 t_d54 +1 t_d55 +1 t_d58 +1 t_d59 +1 t_d62 +1 t_d63 >= +7
 R19: +1 t_d52 +1 t_d2 +1 t_d4 +1 t_d6 +1 t_d8 +1 t_d9 +1 t_d11 +1 t_d13 +1 t_d15 +1 t_d18 +1 t_d20 +1 t_d22
  +1 t_d24 +1 t_d25 +1 t_d27 +1 t_d29 +1 t_d31 +1 t_d34 +1 t_d36 +1 t_d38 +1 t_d40 +1 t_d41 +1 t_d43 +1 t_d45
  +1 t_d47 +1 t_d50 +1 t_d54 +1 t_d56 +1 t_d57 +1 t_d59 +1 t_d61 +1 t_d63 >= +7
 R7: +1 t_d17 +1 t_d18 +1 t_d19 +1 t_d20 +1 t_d21 +1 t_d22 +1 t_d23 +1 t_d24 +1 t_d25 +1 t_d26 +1 t_d27
  +1 t_d28 +1 t_d29 +1 t_d30 +1 t_d31 +1 t_d32 +1 t_d33 +1 t_d34 +1 t_d35 +1 t_d36 +1 t_d37 +1 t_d38 +1 t_d39
  +1 t_d40 +1 t_d41 +1 t_d42 +1 t_d43 +1 t_d44 +1 t_d45 +1 t_d46 +1 t_d47 +1 t_d48 >= +7
 R5: +1 t_d1 +1 t_d2 +1 t_d5 +1 t_d6 +1 t_d9 +1 t_d10 +1 t_d13 +1 t_d14 +1 t_d17 +1 t_d18 +1 t_d21 +1 t_d22
  +1 t_d25 +1 t_d26 +1 t_d29 +1 t_d30 +1 t_d33 +1 t_d34 +1 t_d37 +1 t_d38 +1 t_d41 +1 t_d42 +1 t_d45 +1 t_d46
  +1 t_d49 +1 t_d50 +1 t_d53 +1 t_d54 +1 t_d57 +1 t_d58 +1 t_d61 +1 t_d62 >= +8
 R20: +1 t_d52 +1 t_d2 +1 t_d4 +1 t_d5 +1 t_d7 +1 t_d10 +1 t_d12 +1 t_d13 +1 t_d15 +1 t_d18 +1 t_d20 +1 t_d21
  +1 t_d23 +1 t_d26 +1 t_d28 +1 t_d29 +1 t_d31 +1 t_d34 +1 t_d36 +1 t_d37 +1 t_d39 +1 t_d42 +1 t_d44 +1 t_d45
  +1 t_d47 +1 t_d50 +1 t_d53 +1 t_d55 +1 t_d58 +1 t_d60 +1 t_d61 +1 t_d63 >= +7
 R63: +1 t_d2 +1 t_d3 +1 t_d5 +1 t_d8 +1 t_d9 +1 t_d12 +1 t_d14 +1 t_d15 +1 t_d17 +1 t_d20 +1 t_d22 +1 t_d23
  +1 t_d26 +1 t_d27 +1 t_d29 +1 t_d32 +1 t_d33 +1 t_d36 +1 t_d38 +1 t_d39 +1 t_d42 +1 t_d43 +1 t_d45 +1 t_d48
  +1 t_d50 +1 t_d51 +1 t_d53 +1 t_d56 +1 t_d57 +1 t_d60 +1 t_d62 +1 t_d63 >= +3
 R57: +1 t_d1 +1 t_d2 +1 t_d7 +1 t_d8 +1 t_d11 +1 t_d12 +1 t_d13 +1 t_d14 +1 t_d19 +1 t_d20 +1 t_d21 +1 t_d22
  +1 t_d25 +1 t_d26 +1 t_d31 +1 t_d32 +1 t_d35 +1 t_d36 +1 t_d37 +1 t_d38 +1 t_d41 +1 t_d42 +1 t_d47 +1 t_d48
  +1 t_d49 +1 t_d50 +1 t_d55 +1 t_d56 +1 t_d59 +1 t_d60 +1 t_d61 +1 t_d62 >= +4
 R52: +1 t_d52 +1 t_d2 +1 t_d3 +1 t_d6 +1 t_d7 +1 t_d9 +1 t_d12 +1 t_d13 +1 t_d16 +1 t_d18 +1 t_d19 +1 t_d22
  +1 t_d23 +1 t_d25 +1 t_d28 +1 t_d29 +1 t_d32 +1 t_d33 +1 t_d36 +1 t_d37 +1 t_d40 +1 t_d42 +1 t_d43 +1 t_d46
  +1 t_d47 +1 t_d49 +1 t_d53 +1 t_d56 +1 t_d58 +1 t_d59 +1 t_d62 +1 t_d63 >= +5
 R34: +1 t_d52 +1 t_d1 +1 t_d3 +1 t_d5 +1 t_d7 +1 t_d10 +1 t_d12 +1 t_d14 +1 t_d16 +1 t_d18 +1 t_d20 +1 t_d22
  +1 t_d24 +1 t_d25 +1 t_d27 +1 t_d29 +1 t_d31 +1 t_d33 +1 t_d35 +1 t_d37 +1 t_d39 +1 t_d42 +1 t_d44 +1 t_d46
  +1 t_d48 +1 t_d50 +1 t_d54 +1 t_d56 +1 t_d57 +1 t_d59 +1 t_d61 +1 t_d63 >= +6
 R27: +1 t_d52 +1 t_d1 +1 t_d2 +1 t_d5 +1 t_d6 +1 t_d11 +1 t_d12 +1 t_d15 +1 t_d16 +1 t_d17 +1 t_d18 +1 t_d21
  +1 t_d22 +1 t_d27 +1 t_d28 +1 t_d31 +1 t_d32 +1 t_d35 +1 t_d36 +1 t_d39 +1 t_d40 +1 t_d41 +1 t_d42 +1 t_d45
  +1 t_d46 +1 t_d51 +1 t_d55 +1 t_d56 +1 t_d57 +1 t_d58 +1 t_d61 +1 t_d62 >= +6
 R14: +1 t_d3 +1 t_d4 +1 t_d7 +1 t_d8 +1 t_d11 +1 t_d12 +1 t_d15 +1 t_d16 +1 t_d17 +1 t_d18 +1 t_d21 +1 t_d22
  +1 t_d25 +1 t_d26 +1 t_d29 +1 t_d30 +1 t_d35 +1 t_d36 +1 t_d39 +1 t_d40 +1 t_d43 +1 t_d44 +1 t_d47 +1 t_d48
  +1 t_d49 +1 t_d50 +1 t_d53 +1 t_d54 +1 t_d57 +1 t_d58 +1 t_d61 +1 t_d62 >= +7
 R60: +1 t_d52 +1 t_d1 +1 t_d4 +1 t_d6 +1 t_d7 +1 t_d9 +1 t_d12 +1 t_d14 +1 t_d15 +1 t_d18 +1 t_d19 +1 t_d21
  +1 t_d24 +1 t_d26 +1 t_d27 +1 t_d29 +1 t_d32 +1 t_d34 +1 t_d35 +1 t_d37 +1 t_d40 +1 t_d42 +1 t_d43 +1 t_d45
  +1 t_d48 +1 t_d49 +1 t_d54 +1 t_d55 +1 t_d57 +1 t_d60 +1 t_d62 +1 t_d63 >= +4
 R59: +1 t_d52 +1 t_d1 +1 t_d4 +1 t_d5 +1 t_d8 +1 t_d10 +1 t_d11 +1 t_d14 +1 t_d15 +1 t_d18 +1 t_d19 +1 t_d22
  +1 t_d23 +1 t_d25 +1 t_d28 +1 t_d29 +1 t_d32 +1 t_d34 +1 t_d35 +1 t_d38 +1 t_d39 +1 t_d41 +1 t_d44 +1 t_d45
  +1 t_d48 +1 t_d49 +1 t_d53 +1 t_d56 +1 t_d58 +1 t_d59 +1 t_d62 +1 t_d63 >= +4
 R58: +1 t_d1 +1 t_d3 +1 t_d6 +1 t_d8 +1 t_d10 +1 t_d12 +1 t_d13 +1 t_d15 +1 t_d18 +1 t_d20 +1 t_d21 +1 t_d23
  +1 t_d25 +1 t_d27 +1 t_d30 +1 t_d32 +1 t_d34 +1 t_d36 +1 t_d37 +1 t_d39 +1 t_d41 +1 t_d43 +1 t_d46 +1 t_d48
  +1 t_d49 +1 t_d51 +1 t_d54 +1 t_d56 +1 t_d58 +1 t_d60 +1 t_d61 +1 t_d63 >= +4
 R53: +1 t_d52 +1 t_d2 +1 t_d3 +1 t_d6 +1 t_d7 +1 t_d9 +1 t_d12 +1 t_d13 +1 t_d16 +1 t_d17 +1 t_d20 +1 t_d21
  +1 t_d24 +1 t_d26 +1 t_d27 +1 t_d30 +1 t_d31 +1 t_d34 +1 t_d35 +1 t_d38 +1 t_d39 +1 t_d41 +1 t_d44 +1 t_d45
  +1 t_d48 +1 t_d49 +1 t_d53 +1 t_d56 +1 t_d58 +1 t_d59 +1 t_d62 +1 t_d63 >= +5
 R50: +1 t_d2 +1 t_d4 +1 t_d5 +1 t_d7 +1 t_d9 +1 t_d11 +1 t_d14 +1 t_d16 +1 t_d17 +1 t_d19 +1 t_d22 +1 t_d24
  +1 t_d26 +1 t_d28 +1 t_d29 +1 t_d31 +1 t_d34 +1 t_d36 +1 t_d37 +1 t_d39 +1 t_d41 +1 t_d43 +1 t_d46 +1 t_d48
  +1 t_d49 +1 t_d51 +1 t_d54 +1 t_d56 +1 t_d58 +1 t_d60 +1 t_d61 +1 t_d63 >= +5
 R31: +1 t_d1 +1 t_d2 +1 t_d7 +1 t_d8 +1 t_d11 +1 t_d12 +1 t_d13 +1 t_d14 +1 t_d17 +1 t_d18 +1 t_d23 +1 t_d24
  +1 t_d27 +1 t_d28 +1 t_d29 +1 t_d30 +1 t_d33 +1 t_d34 +1 t_d39 +1 t_d40 +1 t_d43 +1 t_d44 +1 t_d45 +1 t_d46
  +1 t_d49 +1 t_d50 +1 t_d55 +1 t_d56 +1 t_d59 +1 t_d60 +1 t_d61 +1 t_d62 >= +6
 R61: +1 t_d1 +1 t_d4 +1 t_d6 +1 t_d7 +1 t_d10 +1 t_d11 +1 t_d13 +1 t_d16 +1 t_d17 +1 t_d20 +1 t_d22 +1 t_d23
  +1 t_d26 +1 t_d27 +1 t_d29 +1 t_d32 +1 t_d34 +1 t_d35 +1 t_d37 +1 t_d40 +1 t_d41 +1 t_d44 +1 t_d46 +1 t_d47
  +1 t_d50 +1 t_d51 +1 t_d53 +1 t_d56 +1 t_d57 +1 t_d60 +1 t_d62 +1 t_d63 >= +4
 R54: +1 t_d52 +1 t_d2 +1 t_d3 +1 t_d5 +1 t_d8 +1 t_d10 +1 t_d11 +1 t_d13 +1 t_d16 +1 t_d18 +1 t_d19 +1 t_d21
  +1 t_d24 +1 t_d26 +1 t_d27 +1 t_d29 +1 t_d32 +1 t_d33 +1 t_d36 +1 t_d38 +1 t_d39 +1 t_d41 +1 t_d44 +1 t_d46
  +1 t_d47 +1 t_d49 +1 t_d54 +1 t_d55 +1 t_d57 +1 t_d60 +1 t_d62 +1 t_d63 >= +5
 R49: +1 t_d2 +1 t_d4 +1 t_d5 +1 t_d7 +1 t_d9 +1 t_d11 +1 t_d14 +1 t_d16 +1 t_d18 +1 t_d20 +1 t_d21 +1 t_d23
  +1 t_d25 +1 t_d27 +1 t_d30 +1 t_d32 +1 t_d33 +1 t_d35 +1 t_d38 +1 t_d40 +1 t_d42 +1 t_d44 +1 t_d45 +1 t_d47
  +1 t_d49 +1 t_d51 +1 t_d54 +1 t_d56 +1 t_d58 +1 t_d60 +1 t_d61 +1 t_d63 >= +5
 R62: +1 t_d1 +1 t_d4 +1 t_d6 +1 t_d7 +1 t_d10 +1 t_d11 +1 t_d13 +1 t_d16 +1 t_d18 +1 t_d19 +1 t_d21 +1 t_d24
  +1 t_d25 +1 t_d28 +1 t_d30 +1 t_d31 +1 t_d33 +1 t_d36 +1 t_d38 +1 t_d39 +1 t_d42 +1 t_d43 +1 t_d45 +1 t_d48
  +1 t_d50 +1 t_d51 +1 t_d53 +1 t_d56 +1 t_d57 +1 t_d60 +1 t_d62 +1 t_d63 >= +4
 newcut_1: -1.0 t_d1 -1.0 t_d2 -1.0 t_d3 -1.0 t_d4 -1.0 t_d5 -1.0 t_d6 -1.0 t_d7 -1.0 t_d8 -1.0 t_d9 -1.0 t_d10 -1.0 t_d11 -1.0 t_d12 -1.0 t_d13 -1.0 t_d14 -1.0 t_d15 -1.0 t_d16 -1.0 t_d17 -1.0 t_d18 -1.0 t_d19 -1.0 t_d20 -1.0 t_d21 -1.0 t_d22 -1.0 t_d23 -1.0 t_d24 -1.0 t_d25 -1.0 t_d26 -1.0 t_d27 -1.0 t_d28 -1.0 t_d29 -1.0 t_d30 -1.0 t_d31 -1.0 t_d32 -1.0 t_d33 -1.0 t_d34 -1.0 t_d35 -1.0 t_d36 -1.0 t_d37 -1.0 t_d38 -1.0 t_d39 -1.0 t_d40 -1.0 t_d41 -1.0 t_d42 -1.0 t_d43 -1.0 t_d44 -1.0 t_d45 -1.0 t_d46 -1.0 t_d47 -1.0 t_d48 <= -12.0
 newcut_2: -0.44444444444444364 t_d52 -0.9444444444444442 t_d1 -0.9444444444444442 t_d2 -0.9444444444444442 t_d3 -0.9444444444444441 t_d4 -0.9444444444444443 t_d5 -0.9444444444444443 t_d6 -0.9444444444444442 t_d7 -0.9444444444444442 t_d8 -0.9444444444444444 t_d9 -0.9444444444444444 t_d10 -0.9444444444444444 t_d11 -0.9444444444444444 t_d12 -0.9444444444444442 t_d13 -0.9444444444444442 t_d14 -0.9444444444444442 t_d15 -0.9444444444444443 t_d16 -0.8888888888888888 t_d17 -1.0 t_d18 -1.0 t_d19 -0.44444444444444353 t_d20 -0.8888888888888886 t_d21 -1.0 t_d22 -1.0 t_d23 -0.44444444444444364 t_d24 -0.8888888888888886 t_d25 -1.0 t_d26 -1.0 t_d27 -0.44444444444444364 t_d28 -0.8888888888888887 t_d29 -1.0 t_d30 -1.0 t_d31 -0.44444444444444364 t_d32 -0.9444444444444443 t_d33 -0.9444444444444443 t_d34 -0.9444444444444442 t_d35 -0.9444444444444442 t_d36 -0.9444444444444443 t_d37 -0.9444444444444444 t_d38 -0.9444444444444443 t_d39 -0.9444444444444444 t_d40 -0.9444444444444442 t_d41 -0.9444444444444442 t_d42 -0.9444444444444443 t_d43 -0.9444444444444443 t_d44 -0.9444444444444441 t_d45 -0.9444444444444441 t_d46 -0.9444444444444442 t_d47 -0.9444444444444442 t_d48 -0.8888888888888888 t_d49 -1.0 t_d50 -1.0 t_d51 -0.8888888888888886 t_d53 -1.0 t_d54 -1.0 t_d55 -0.6666666666666665 t_d56 -0.8888888888888887 t_d57 -1.0 t_d58 -1.0 t_d59 -0.6666666666666665 t_d60 -0.8888888888888888 t_d61 -1.0 t_d62 -1.0 t_d63 <= -12.499999999999998
 newcut_3: -0.551724137931034 t_d52 -0.7241379310344827 t_d1 -0.7241379310344825 t_d2 -0.7241379310344825 t_d3 -0.7241379310344825 t_d4 -0.7241379310344825 t_d5 -0.7241379310344827 t_d6 -0.7241379310344825 t_d7 -0.7241379310344825 t_d8 -0.7241379310344827 t_d9 -0.7241379310344827 t_d10 -0.7241379310344828 t_d11 -0.7241379310344828 t_d12 -0.7241379310344825 t_d13 -0.7241379310344827 t_d14 -0.7241379310344827 t_d15 -0.7241379310344828 t_d16 -0.689655172413793 t_d17 -0.5517241379310344 t_d18 -0.5517241379310343 t_d19 -0.7586206896551723 t_d20 -0.8620689655172412 t_d21 -0.7241379310344827 t_d22 -0.7241379310344827 t_d23 -0.9310344827586208 t_d24 -0.8620689655172412 t_d25 -0.7241379310344825 t_d26 -0.7241379310344827 t_d27 -0.9310344827586207 t_d28 -0.8275862068965515 t_d29 -0.6896551724137928 t_d30 -0.6896551724137928 t_d31 -0.6206896551724138 t_d32 -0.7241379310344828 t_d33 -0.7241379310344827 t_d34 -0.7241379310344827 t_d35 -0.7241379310344825 t_d36 -0.7241379310344827 t_d37 -0.7241379310344828 t_d38 -0.7241379310344827 t_d39 -0.7241379310344827 t_d40 -0.7241379310344825 t_d41 -0.7241379310344824 t_d42 -0.7241379310344827 t_d43 -0.7241379310344825 t_d44 -0.7241379310344824 t_d45 -0.7241379310344825 t_d46 -0.7241379310344825 t_d47 -0.7241379310344827 t_d48 -0.6206896551724138 t_d49 -0.8275862068965518 t_d50 -0.8275862068965517 t_d51 -0.7931034482758621 t_d53 -1.0 t_d54 -1.0 t_d55 -0.5172413793103449 t_d56 -0.793103448275862 t_d57 -1.0 t_d58 -1.0 t_d59 -0.5172413793103449 t_d60 -0.9655172413793104 t_d61 -0.689655172413793 t_d62 -0.689655172413793 t_d63 <= -9.620689655172413
 newcut_4: -0.22857142857143137 t_d52 -0.6714285714285739 t_d1 -0.6714285714285743 t_d2 -0.6714285714285743 t_d3 -0.6714285714285746 t_d4 -0.6714285714285732 t_d5 -0.6714285714285738 t_d6 -0.6714285714285736 t_d7 -0.6714285714285743 t_d8 -0.671428571428575 t_d9 -0.6714285714285744 t_d10 -0.6714285714285745 t_d11 -0.6714285714285739 t_d12 -0.671428571428574 t_d13 -0.6714285714285738 t_d14 -0.6714285714285737 t_d15 -0.6714285714285735 t_d16 -0.6857142857142882 t_d17 -0.6571428571428599 t_d18 -0.6857142857142885 t_d19 -0.6571428571428599 t_d20 -0.6857142857142886 t_d21 -0.6571428571428595 t_d22 -0.6857142857142878 t_d23 -0.6571428571428596 t_d24 -0.6857142857142879 t_d25 -0.6571428571428599 t_d26 -0.6857142857142886 t_d27 -0.6571428571428596 t_d28 -0.6857142857142885 t_d29 -0.6571428571428596 t_d30 -0.6857142857142882 t_d31 -0.6571428571428596 t_d32 -0.6714285714285738 t_d33 -0.6714285714285742 t_d34 -0.6714285714285742 t_d35 -0.6714285714285745 t_d36 -0.6714285714285733 t_d37 -0.6714285714285739 t_d38 -0.6714285714285737 t_d39 -0.6714285714285744 t_d40 -0.6714285714285748 t_d41 -0.6714285714285742 t_d42 -0.6714285714285743 t_d43 -0.6714285714285736 t_d44 -0.6714285714285742 t_d45 -0.6714285714285739 t_d46 -0.6714285714285738 t_d47 -0.6714285714285736 t_d48 -0.8857142857142851 t_d49 -0.2285714285714313 t_d50 -0.8857142857142852 t_d51 -0.885714285714285 t_d53 -1.0 t_d54 -0.8857142857142851 t_d55 -0.5714285714285698 t_d56 -0.8857142857142852 t_d57 -1.0 t_d58 -0.8857142857142851 t_d59 -0.5714285714285726 t_d60 -0.8857142857142851 t_d61 -0.7142857142857134 t_d62 -0.8857142857142851 t_d63 <= -9.185714285714317
 newcut_5: -0.9421593830334188 t_d52 -0.9517994858611821 t_d1 -0.9517994858611821 t_d2 -0.9517994858611822 t_d3 -0.9517994858611821 t_d4 -0.9517994858611823 t_d5 -0.9517994858611822 t_d6 -0.9517994858611822 t_d7 -0.9517994858611822 t_d8 -0.9517994858611822 t_d9 -0.9517994858611822 t_d10 -0.9517994858611823 t_d11 -0.9517994858611822 t_d12 -0.9517994858611822 t_d13 -0.9517994858611822 t_d14 -0.9517994858611822 t_d15 -0.9517994858611822 t_d16 -0.8997429305912594 t_d17 -0.8997429305912594 t_d18 -0.9421593830334188 t_d19 -0.9421593830334187 t_d20 -0.8997429305912596 t_d21 -0.899742930591259 t_d22 -0.9421593830334188 t_d23 -0.9421593830334188 t_d24 -0.9575835475578407 t_d25 -0.9575835475578405 t_d26 -0.5192802056555283 t_d27 -0.5192802056555281 t_d28 -0.9575835475578406 t_d29 -0.9575835475578405 t_d30 -0.5192802056555281 t_d31 -0.5192802056555281 t_d32 -0.9517994858611821 t_d33 -0.9517994858611822 t_d34 -0.9517994858611821 t_d35 -0.9517994858611822 t_d36 -0.9517994858611822 t_d37 -0.9517994858611825 t_d38 -0.9517994858611822 t_d39 -0.9517994858611823 t_d40 -0.9517994858611821 t_d41 -0.9517994858611822 t_d42 -0.9517994858611821 t_d43 -0.9517994858611822 t_d44 -0.9517994858611822 t_d45 -0.9517994858611823 t_d46 -0.9517994858611821 t_d47 -0.9517994858611823 t_d48 -0.8997429305912595 t_d49 -0.8997429305912596 t_d50 -0.942159383033419 t_d51 -0.8997429305912595 t_d53 -0.8997429305912593 t_d54 -0.9421593830334188 t_d55 -0.9421593830334188 t_d56 -0.9575835475578405 t_d57 -0.9575835475578407 t_d58 -1.0 t_d59 -0.6066838046272495 t_d60 -0.9575835475578406 t_d61 -0.9575835475578404 t_d62 -0.7686375321336761 t_d63 <= -12.532776349614393
 newcut_6: -0.6353599611910605 t_d52 -0.7899362739558398 t_d1 -0.782858052441684 t_d2 -1.0 t_d3 -0.6083384095500862 t_d4 -0.588803014308041 t_d5 -0.588803014308041 t_d6 -0.7849500968845354 t_d7 -0.7849500968845354 t_d8 -0.6950163036138076 t_d9 -0.6950163036138076 t_d10 -0.7092492344330132 t_d11 -0.7092492344330132 t_d12 -0.6936953387926786 t_d13 -0.6936953387926786 t_d14 -0.6940116261442167 t_d15 -0.6940116261442167 t_d16 -0.6959837708067471 t_d17 -0.6959837708067471 t_d18 -0.6817508399875415 t_d19 -0.6817508399875415 t_d20 -0.697304735627876 t_d21 -0.697304735627876 t_d22 -0.6969884482763379 t_d23 -0.6969884482763379 t_d24 -0.601063800464715 t_d25 -0.601063800464715 t_d26 -0.7826616648704685 t_d27 -0.7826616648704685 t_d28 -0.8021970601125137 t_d29 -0.7672855516630249 t_d30 -0.9698782810505996 t_d31 -0.6060499775360192 t_d32 -0.903089279857113 t_d33 -0.5114276894071997 t_d34 -0.6910161988737691 t_d35 -0.6839379773596155 t_d36 -0.6880393767416485 t_d37 -0.6880393767416485 t_d38 -0.8466330212263975 t_d39 -0.8466330212263975 t_d40 -0.6262551577577922 t_d41 -0.6262551577577922 t_d42 -0.6100128719994053 t_d43 -0.6100128719994053 t_d44 -0.6110175494689962 t_d45 -0.6110175494689962 t_d46 -0.5808586202429419 t_d47 -0.5808586202429419 t_d48 -0.6191176754326737 t_d49 -0.6191176754326737 t_d50 -0.6353599611910605 t_d51 -0.6343552837214698 t_d53 -0.6343552837214698 t_d54 -0.664514212947524 t_d55 -0.664514212947524 t_d56 -0.7339451437832661 t_d57 -0.7339451437832661 t_d58 -0.5543566343166968 t_d59 -0.5543566343166968 t_d60 -0.9410320476953075 t_d61 -0.5573334564488175 t_d62 -0.6877671904587358 t_d63 <= -8.973378803372638
 newcut_7: -0.9557828970204054 t_d52 -0.95166152103619 t_d1 -0.9531193481795428 t_d2 -0.9543250698770527 t_d3 -0.9557828970204056 t_d4 -0.9604413672153308 t_d5 -0.9987942783024898 t_d6 -1.0 t_d7 -0.5379418695993742 t_d8 -0.95166152103619 t_d9 -0.9531193481795429 t_d10 -0.9543250698770527 t_d11 -0.9557828970204056 t_d12 -0.9604413672153309 t_d13 -0.99879427830249 t_d14 -1.0 t_d15 -0.5379418695993744 t_d16 -0.9516615210361897 t_d17 -0.9531193481795426 t_d18 -0.9543250698770529 t_d19 -0.9557828970204055 t_d20 -0.9604413672153308 t_d21 -0.9987942783024899 t_d22 -1.0 t_d23 -0.5379418695993742 t_d24 -0.95166152103619 t_d25 -0.9531193481795428 t_d26 -0.9543250698770527 t_d27 -0.9557828970204054 t_d28 -0.9604413672153308 t_d29 -0.9987942783024898 t_d30 -1.0 t_d31 -0.5379418695993743 t_d32 -0.95166152103619 t_d33 -0.9531193481795428 t_d34 -0.9543250698770527 t_d35 -0.9557828970204056 t_d36 -0.9604413672153308 t_d37 -0.9987942783024898 t_d38 -1.0 t_d39 -0.5379418695993743 t_d40 -0.9516615210361898 t_d41 -0.9531193481795428 t_d42 -0.9543250698770527 t_d43 -0.9557828970204056 t_d44 -0.9604413672153309 t_d45 -0.9987942783024899 t_d46 -1.0 t_d47 -0.5379418695993745 t_d48 -0.9516615210361901 t_d49 -0.9531193481795429 t_d50 -0.9543250698770529 t_d51 -0.9604413672153308 t_d53 -0.99879427830249 t_d54 -1.0 t_d55 -0.6402455287820398 t_d56 -0.95166152103619 t_d57 -0.9531193481795426 t_d58 -0.9543250698770527 t_d59 -0.9557828970204054 t_d60 -0.9604413672153307 t_d61 -0.9987942783024898 t_d62 -1.0 t_d63 <= -12.825144777946253
 newcut_8: -0.9749437230727949 t_d52 -0.9910441419818422 t_d1 -0.9910441419818422 t_d2 -0.9525540780274004 t_d3 -0.9525540780274006 t_d4 -1.0 t_d5 -1.0 t_d6 -0.9991446652454565 t_d7 -0.9991446652454564 t_d8 -0.9910441419818423 t_d9 -0.9910441419818424 t_d10 -0.9525540780274006 t_d11 -0.9525540780274007 t_d12 -1.0 t_d13 -1.0 t_d14 -0.9991446652454568 t_d15 -0.9991446652454566 t_d16 -0.9910441419818423 t_d17 -0.9910441419818423 t_d18 -0.9525540780274003 t_d19 -0.9525540780274004 t_d20 -1.0 t_d21 -1.0 t_d22 -0.9991446652454566 t_d23 -0.9991446652454566 t_d24 -0.9910441419818422 t_d25 -0.9910441419818424 t_d26 -0.9525540780274007 t_d27 -0.9525540780274004 t_d28 -1.0 t_d29 -1.0 t_d30 -0.9991446652454566 t_d31 -0.9991446652454566 t_d32 -0.9310197677365493 t_d33 -0.9310197677365493 t_d34 -0.9749437230727948 t_d35 -0.9749437230727948 t_d36 -0.9776103549546056 t_d37 -0.9776103549546055 t_d38 -0.548726128892797 t_d39 -0.5487261288927968 t_d40 -0.9310197677365494 t_d41 -0.9310197677365494 t_d42 -0.9749437230727949 t_d43 -0.9749437230727949 t_d44 -0.9776103549546058 t_d45 -0.9776103549546056 t_d46 -0.5487261288927971 t_d47 -0.548726128892797 t_d48 -0.9310197677365493 t_d49 -0.931019767736549 t_d50 -0.9749437230727943 t_d51 -0.9776103549546055 t_d53 -0.9776103549546054 t_d54 -0.9838995810909521 t_d55 -0.6530806958958836 t_d56 -0.9310197677365496 t_d57 -0.9310197677365493 t_d58 -0.9749437230727946 t_d59 -0.9749437230727949 t_d60 -0.9776103549546056 t_d61 -0.9776103549546056 t_d62 -0.8007573160005367 t_d63 <= -12.956240030411902
 newcut_9: -0.9412380669182958 t_d52 -0.9385782644150165 t_d1 -0.9385782644150165 t_d2 -0.9412380669182955 t_d3 -0.9412380669182956 t_d4 -0.9604970072661131 t_d5 -0.9604970072661132 t_d6 -1.0 t_d7 -1.0 t_d8 -0.964930011438245 t_d9 -0.9649300114382451 t_d10 -0.967589813941524 t_d11 -0.9675898139415242 t_d12 -0.9973894530986329 t_d13 -0.9973894530986331 t_d14 -0.5371852430216633 t_d15 -0.5371852430216636 t_d16 -0.9385782644150168 t_d17 -0.9385782644150164 t_d18 -0.9412380669182955 t_d19 -0.9412380669182957 t_d20 -0.960497007266113 t_d21 -0.9604970072661131 t_d22 -1.0 t_d23 -1.0 t_d24 -0.9649300114382448 t_d25 -0.9649300114382451 t_d26 -0.9675898139415242 t_d27 -0.9675898139415244 t_d28 -0.997389453098633 t_d29 -0.9973894530986334 t_d30 -0.5371852430216639 t_d31 -0.5371852430216639 t_d32 -0.9385782644150168 t_d33 -0.9385782644150165 t_d34 -0.9412380669182958 t_d35 -0.9412380669182955 t_d36 -0.9604970072661132 t_d37 -0.9604970072661131 t_d38 -1.0 t_d39 -1.0 t_d40 -0.9649300114382451 t_d41 -0.964930011438245 t_d42 -0.9675898139415242 t_d43 -0.9675898139415241 t_d44 -0.9973894530986329 t_d45 -0.9973894530986329 t_d46 -0.5371852430216633 t_d47 -0.5371852430216633 t_d48 -0.9385782644150167 t_d49 -0.9385782644150165 t_d50 -0.9412380669182957 t_d51 -0.9604970072661132 t_d53 -0.960497007266113 t_d54 -1.0 t_d55 -1.0 t_d56 -0.9649300114382452 t_d57 -0.9649300114382451 t_d58 -0.9675898139415243 t_d59 -0.9675898139415244 t_d60 -0.9973894530986334 t_d61 -0.9973894530986332 t_d62 -0.7839156744095255 t_d63 <= -12.805206864406621
Bounds
 0 <= t_d52 <= 1
 0 <= t_d1 <= 1
 0 <= t_d2 <= 1
 0 <= t_d3 <= 1
 0 <= t_d4 <= 1
 0 <= t_d5 <= 1
 0 <= t_d6 <= 1
 0 <= t_d7 <= 1
 0 <= t_d8 <= 1
 0 <= t_d9 <= 1
 0 <= t_d10 <= 1
 0 <= t_d11 <= 1
 0 <= t_d12 <= 1
 0 <= t_d13 <= 1
 0 <= t_d14 <= 1
 0 <= t_d15 <= 1
 0 <= t_d16 <= 1
 0 <= t_d17 <= 1
 0 <= t_d18 <= 1
 0 <= t_d19 <= 1
 0 <= t_d20 <= 1
 0 <= t_d21 <= 1
 0 <= t_d22 <= 1
 0 <= t_d23 <= 1
 0 <= t_d24 <= 1
 0 <= t_d25 <= 1
 0 <= t_d26 <= 1
 0 <= t_d27 <= 1
 0 <= t_d28 <= 1
 0 <= t_d29 <= 1
 0 <= t_d30 <= 1
 0 <= t_d31 <= 1
 0 <= t_d32 <= 1
 0 <= t_d33 <= 1
 0 <= t_d34 <= 1
 0 <= t_d35 <= 1
 0 <= t_d36 <= 1
 0 <= t_d37 <= 1
 0 <= t_d38 <= 1
 0 <= t_d39 <= 1
 0 <= t_d40 <= 1
 0 <= t_d41 <= 1
 0 <= t_d42 <= 1
 0 <= t_d43 <= 1
 0 <= t_d44 <= 1
 0 <= t_d45 <= 1
 0 <= t_d46 <= 1
 0 <= t_d47 <= 1
 0 <= t_d48 <= 1
 0 <= t_d49 <= 1
 0 <= t_d50 <= 1
 0 <= t_d51 <= 1
 0 <= t_d53 <= 1
 0 <= t_d54 <= 1
 0 <= t_d55 <= 1
 0 <= t_d56 <= 1
 0 <= t_d57 <= 1
 0 <= t_d58 <= 1
 0 <= t_d59 <= 1
 0 <= t_d60 <= 1
 0 <= t_d61 <= 1
 0 <= t_d62 <= 1
 0 <= t_d63 <= 1
Binaries
 t_d52 t_d1 t_d2 t_d3 t_d4 t_d5 t_d6 t_d7 t_d8 t_d9 t_d10 t_d11 t_d12 t_d13 t_d14 t_d15 t_d16 t_d17 t_d18
 t_d19 t_d20 t_d21 t_d22 t_d23 t_d24 t_d25 t_d26 t_d27 t_d28 t_d29 t_d30 t_d31 t_d32 t_d33 t_d34 t_d35
 t_d36 t_d37 t_d38 t_d39 t_d40 t_d41 t_d42 t_d43 t_d44 t_d45 t_d46 t_d47 t_d48 t_d49 t_d50 t_d51 t_d53
End
